\ LP format - for model browsing. Use MPS format to capture full model detail.
Minimize
  3.4965e-08 C2 + 3.4965e-08 C3 + 3.4965e-08 C4 + 3.4965e-08 C5
   + 3.4965e-08 C6 + 3.4965e-08 C7 + 3.4965e-08 C8 + 3.4965e-08 C9
   + 3.4965e-08 C10 + 3.4965e-08 C11 + 3.4965e-08 C12 + 3.4965e-08 C13
   + 3.4965e-08 C14 + 3.4965e-08 C15 + 3.4965e-08 C16 + 3.4965e-08 C17
   + 3.4965e-08 C18 + 3.4965e-08 C19 + 3.4965e-08 C20 + 3.4965e-08 C21
   + 3.4965e-08 C22 + 3.4965e-08 C23 + 3.4965e-08 C24 + 3.4965e-08 C25
   + 3.4965e-08 C26 + 3.4965e-08 C27 + 3.4965e-08 C28 + 3.4965e-08 C29
   + 3.4965e-08 C30 + 3.4965e-08 C31 + 3.4965e-08 C32 + 3.4965e-08 C33
   + 3.4965e-08 C34 + 3.4965e-08 C35 + 3.4965e-08 C36 + 3.4965e-08 C37
   + 3.4965e-08 C38 + 3.4965e-08 C39 + 3.4965e-08 C40 + 3.4965e-08 C41
   + 3.4965e-08 C42 + 3.4965e-08 C43 + 3.4965e-08 C44 + 3.4965e-08 C45
   + 3.4965e-08 C46 + 3.4965e-08 C47 + 3.4965e-08 C48 + 3.4965e-08 C49
   + 3.4965e-08 C50 + 3.4965e-08 C51 + 3.4965e-08 C52 + 3.4965e-08 C53
   + 3.4965e-08 C54 + 3.4965e-08 C55 + 3.4965e-08 C56 + 3.4965e-08 C57
   + 3.4965e-08 C58 + 3.4965e-08 C59 + 3.4965e-08 C60 + 3.4965e-08 C61
   + 3.4965e-08 C62 + 3.4965e-08 C63 + 3.4965e-08 C64 + 3.4965e-08 C65
   + 3.4965e-08 C66 + 3.4965e-08 C67 + 3.4965e-08 C68 + 3.4965e-08 C69
   + 3.4965e-08 C70 + 3.4965e-08 C71 + 3.4965e-08 C72 + 3.4965e-08 C73
   + 3.4965e-08 C74 + 3.4965e-08 C75 + 3.4965e-08 C76 + 3.4965e-08 C77
   + 3.4965e-08 C78 + 3.4965e-08 C79 + 3.4965e-08 C80 + 3.4965e-08 C81
   + 3.4965e-08 C82 + 3.4965e-08 C83 + 3.4965e-08 C84 + 3.4965e-08 C85
   + 3.4965e-08 C86 + 3.4965e-08 C87 + 3.4965e-08 C88 + 3.4965e-08 C89
   + 3.4965e-08 C90 + 3.4965e-08 C91 + 3.4965e-08 C92 + 3.4965e-08 C93
   + 3.4965e-08 C94 + 3.4965e-08 C95 + 3.4965e-08 C96 + 3.4965e-08 C97
   + 3.4965e-08 C98 + 3.4965e-08 C99 + 3.4965e-08 C100 + 3.4965e-08 C101
   + 3.4965e-08 C102 + 3.4965e-08 C103 + 3.4965e-08 C104 + 3.4965e-08 C105
   + 3.4965e-08 C106 + 3.4965e-08 C107 + 3.4965e-08 C108 + 3.4965e-08 C109
   + 3.4965e-08 C110 + 3.4965e-08 C111 + 3.4965e-08 C112 + 3.4965e-08 C113
   + 3.4965e-08 C114 + 3.4965e-08 C115 + 3.4965e-08 C116 + 3.4965e-08 C117
   + 3.4965e-08 C118 + 3.4965e-08 C119 + 3.4965e-08 C120 + 3.4965e-08 C121
   + 3.4965e-08 C122 + 3.4965e-08 C123 + 3.4965e-08 C124 + 3.4965e-08 C125
   + 3.4965e-08 C126 + 3.4965e-08 C127 + 3.4965e-08 C128 + 3.4965e-08 C129
   + 3.4965e-08 C130 + 3.4965e-08 C131 + 3.4965e-08 C132 + 3.4965e-08 C133
   + 3.4965e-08 C134 + 3.4965e-08 C135 + 3.4965e-08 C136 + 3.4965e-08 C137
   + 3.4965e-08 C138 + 3.4965e-08 C139 + 3.4965e-08 C140 + 3.4965e-08 C141
   + 3.4965e-08 C142 + 3.4965e-08 C143 + 3.4965e-08 C144 + 3.4965e-08 C145
   + 3.4965e-08 C146 + 3.4965e-08 C147 + 3.4965e-08 C148 + 3.4965e-08 C149
   + 3.4965e-08 C150 + 3.4965e-08 C151 + 3.4965e-08 C152 + 3.4965e-08 C153
   + 3.4965e-08 C154 + 3.4965e-08 C155 + 3.4965e-08 C156 + 3.4965e-08 C157
   + 3.4965e-08 C158 + 3.4965e-08 C159 + 3.4965e-08 C160 + 3.4965e-08 C161
   + 3.4965e-08 C162 + 3.4965e-08 C163 + 3.4965e-08 C164 + 3.4965e-08 C165
   + 3.4965e-08 C166 + 3.4965e-08 C167 + 3.4965e-08 C168 + 3.4965e-08 C169
   + 3.4965e-08 C170 + 3.4965e-08 C171 + 3.4965e-08 C172 + 3.4965e-08 C173
   + 3.4965e-08 C174 + 3.4965e-08 C175 + 3.4965e-08 C176 + 3.4965e-08 C177
   + 3.4965e-08 C178 + 3.4965e-08 C179 + 3.4965e-08 C180 + 3.4965e-08 C181
   + 3.4965e-08 C182 + 3.4965e-08 C183 + 3.4965e-08 C184 + 3.4965e-08 C185
   + 3.4965e-08 C186 + 3.4965e-08 C187 + 3.4965e-08 C188 + 3.4965e-08 C189
   + 3.4965e-08 C190 + 3.4965e-08 C191 + 3.4965e-08 C192 + 3.4965e-08 C193
   + 3.4965e-08 C194 + 3.4965e-08 C195 + 3.4965e-08 C196 + 3.4965e-08 C197
   + 3.4965e-08 C198 + 3.4965e-08 C199 + 3.4965e-08 C200 + 3.4965e-08 C201
   + 3.4965e-08 C202 + 3.4965e-08 C203 + 3.4965e-08 C204 + 3.4965e-08 C205
   + 3.4965e-08 C206 + 3.4965e-08 C207 + 3.4965e-08 C208 + 3.4965e-08 C209
   + 3.4965e-08 C210 + 3.4965e-08 C211 + 3.4965e-08 C212 + 3.4965e-08 C213
   + 3.4965e-08 C214 + 3.4965e-08 C215 + 3.4965e-08 C216 + 3.4965e-08 C217
   + 3.4965e-08 C218 + 3.4965e-08 C219 + 3.4965e-08 C220 + 3.4965e-08 C221
   + 3.4965e-08 C222 + 3.4965e-08 C223 + 3.4965e-08 C224 + 3.4965e-08 C225
   + 3.4965e-08 C226 + 3.4965e-08 C227 + 3.4965e-08 C228 + 3.4965e-08 C229
   + 3.4965e-08 C230 + 3.4965e-08 C231 + 3.4965e-08 C232 + 3.4965e-08 C233
   + 3.4965e-08 C234 + 3.4965e-08 C235 + 3.4965e-08 C236 + 3.4965e-08 C237
   + 3.4965e-08 C238 + 3.4965e-08 C239 + 3.4965e-08 C240 + 3.4965e-08 C241
   + 3.4965e-08 C242 + 3.4965e-08 C243 + 3.4965e-08 C244 + 3.4965e-08 C245
   + 3.4965e-08 C246 + 3.4965e-08 C247 + 3.4965e-08 C248 + 3.4965e-08 C249
   + 3.4965e-08 C250 + 3.4965e-08 C251 + 3.4965e-08 C252 + 3.4965e-08 C253
   + 3.4965e-08 C254 + 3.4965e-08 C255 + 3.4965e-08 C256 + 3.4965e-08 C257
   + 3.4965e-08 C258 + 3.4965e-08 C259 + 3.4965e-08 C260 + 3.4965e-08 C261
   + 3.4965e-08 C262 + 3.4965e-08 C263 + 3.4965e-08 C264 + 3.4965e-08 C265
   + 3.4965e-08 C266 + 3.4965e-08 C267 + 3.4965e-08 C268 + 3.4965e-08 C269
   + 3.4965e-08 C270 + 3.4965e-08 C271 + 3.4965e-08 C272 + 3.4965e-08 C273
   + 3.4965e-08 C274 + 3.4965e-08 C275 + 3.4965e-08 C276 + 3.4965e-08 C277
   + 3.4965e-08 C278 + 3.4965e-08 C279 + 3.4965e-08 C280 + 3.4965e-08 C281
   + 3.4965e-08 C282 + 3.4965e-08 C283 + 3.4965e-08 C284 + 3.4965e-08 C285
   + 3.4965e-08 C286 + 3.4965e-08 C287 + 0 C288 + 0 C289 + 0 C290 + 0 C291
   + 0 C292 + 0 C293 + 0 C294 + 0 C295 + 0 C296 + 0 C297 + 0 C298 + 0 C299
   + 0 C300 + 0 C301 + 0 C302 + 0 C303 + 0 C304 + 0 C305 + 0 C306 + 0 C307
   + 0 C308 + 0 C309 + 0 C310 + 0 C311 + 0 C312 + 0 C313 + 0 C314 + 0 C315
   + 0 C316 + 0 C317 + 0 C318 + 0 C319 + 0 C320 + 0 C321 + 0 C322 + 0 C323
   + 0 C324 + 0 C325 + 0 C326 + 0 C327 + 0 C328 + 0 C329 + 0 C330 + 0 C331
   + 0 C332 + 0 C333 + 0 C334 + 0 C335 + 0 C336 + 0 C337 + 0 C338 + 0 C339
   + 0 C340 + 0 C341 + 0 C342 + 0 C343 + 0 C344 + 0 C345 + 0 C346 + 0 C347
   + 0 C348 + 0 C349 + 0 C350 + 0 C351 + 0 C352 + 0 C353 + 0 C354 + 0 C355
   + 0 C356 + 0 C357 + 0 C358 + 0 C359 + 0 C360 + 0 C361 + 0 C362 + 0 C363
   + 0 C364 + 0 C365 + 0 C366 + 0 C367 + 0 C368 + 0 C369 + 0 C370 + 0 C371
   + 0 C372 + 0 C373 + 0 C374 + 0 C375 + 0 C376 + 0 C377 + 0 C378 + 0 C379
   + 0 C380 + 0 C381 + 0 C382 + 0 C383 + 0 C384 + 0 C385 + 0 C386 + 0 C387
   + 0 C388 + 0 C389 + 0 C390 + 0 C391 + 0 C392 + 0 C393 + 0 C394 + 0 C395
   + 0 C396 + 0 C397 + 0 C398 + 0 C399 + 0 C400 + 0 C401 + 0 C402 + 0 C403
   + 0 C404 + 0 C405 + 0 C406 + 0 C407 + 0 C408 + 0 C409 + 0 C410 + 0 C411
   + 0 C412 + 0 C413 + 0 C414 + 0 C415 + 0 C416 + 0 C417 + 0 C418 + 0 C419
   + 0 C420 + 0 C421 + 0 C422 + 0 C423 + 0 C424 + 0 C425 + 0 C426 + 0 C427
   + 0 C428 + 0 C429 + 0 C430 + 0 C431 + 0 C432 + 0 C433 + 0 C434 + 0 C435
   + 0 C436 + 0 C437 + 0 C438 + 0 C439 + 0 C440 + 0 C441 + 0 C442 + 0 C443
   + 0 C444 + 0 C445 + 0 C446 + 0 C447 + 0 C448 + 0 C449 + 0 C450 + 0 C451
   + 0 C452 + 0 C453 + 0 C454 + 0 C455 + 0 C456 + 0 C457 + 0 C458 + 0 C459
   + 0 C460 + 0 C461 + 0 C462 + 0 C463 + 0 C464 + 0 C465 + 0 C466 + 0 C467
   + 0 C468 + 0 C469 + 0 C470 + 0 C471 + 0 C472 + 0 C473 + 0 C474 + 0 C475
   + 0 C476 + 0 C477 + 0 C478 + 0 C479 + 0 C480 + 0 C481 + 0 C482 + 0 C483
   + 0 C484 + 0 C485 + 0 C486 + 0 C487 + 0 C488 + 0 C489 + 0 C490 + 0 C491
   + 0 C492 + 0 C493 + 0 C494 + 0 C495 + 0 C496 + 0 C497 + 0 C498 + 0 C499
   + 0 C500 + 0 C501 + 0 C502 + 0 C503 + 0 C504 + 0 C505 + 0 C506 + 0 C507
   + 0 C508 + 0 C509 + 0 C510 + 0 C511 + 0 C512 + 0 C513 + 0 C514 + 0 C515
   + 0 C516 + 0 C517 + 0 C518 + 0 C519 + 0 C520 + 0 C521 + 0 C522 + 0 C523
   + 0 C524 + 0 C525 + 0 C526 + 0 C527 + 0 C528 + 0 C529 + 0 C530 + 0 C531
   + 0 C532 + 0 C533 + 0 C534 + 0 C535 + 0 C536 + 0 C537 + 0 C538 + 0 C539
   + 0 C540 + 0 C541 + 0 C542 + 0 C543 + 0 C544 + 0 C545 + 0 C546 + 0 C547
   + 0 C548 + 0 C549 + 0 C550 + 0 C551 + 0 C552 + 0 C553 + 0 C554 + 0 C555
   + 0 C556 + 0 C557 + 0 C558 + 0 C559 + 0 C560 + 0 C561 + 0 C562 + 0 C563
   + 0 C564 + 0 C565 + 0 C566 + 0 C567 + 0 C568 + 0 C569 + 0 C570 + 0 C571
   + 0 C572 + 0 C573 + 0 C574 + [ C0 ^2 ] / 2 
Subject To
 R255684: 0.00612689174556842 C0 + C1 + C2 >= 0.01
 R255685: - 0.00276279448365628 C0 - C1 + C3 >= 0.01
 R255686: - 0.0190176693870589 C0 - C1 + C4 >= 0.01
 R255687: - 0.00157030138189117 C0 - C1 + C5 >= 0.01
 R255688: - 0.00676811754957175 C0 - C1 + C6 >= 0.01
 R255689: - 0.00414220852948076 C0 - C1 + C7 >= 0.01
 R255690: - 0.00416101345629622 C0 - C1 + C8 >= 0.01
 R255691: - 0.00207585408097214 C0 - C1 + C9 >= 0.01
 R255692: - 0.0191954444151181 C0 - C1 + C10 >= 0.01
 R255693: - 0.00152849935285398 C0 - C1 + C11 >= 0.01
 R255694: - 0.00140654 C0 - C1 + C12 >= 0.01
 R255695: - 0.00421689757003548 C0 - C1 + C13 >= 0.01
 R255696: - 0.00200963330846927 C0 - C1 + C14 >= 0.01
 R255697: - 0.0205173899527579 C0 - C1 + C15 >= 0.01
 R255698: - 0.00857818185579759 C0 - C1 + C16 >= 0.01
 R255699: - 0.00599955032953313 C0 - C1 + C17 >= 0.01
 R255700: - 0.00546759560623665 C0 - C1 + C18 >= 0.01
 R255701: - 0.0215292912293297 C0 - C1 + C19 >= 0.01
 R255702: - 0.0053084607182075 C0 - C1 + C20 >= 0.01
 R255703: - 0.00339974062621797 C0 - C1 + C21 >= 0.01
 R255704: - 0.00301627695310123 C0 - C1 + C22 >= 0.01
 R255705: - 0.00847794 C0 - C1 + C23 >= 0.01
 R255706: - 0.00831467136934825 C0 - C1 + C24 >= 0.01
 R255707: - 0.00319654322578676 C0 - C1 + C25 >= 0.01
 R255708: - 0.00721406585494793 C0 - C1 + C26 >= 0.01
 R255709: - 0.00681041322819491 C0 - C1 + C27 >= 0.01
 R255710: - 0.00312432644442182 C0 - C1 + C28 >= 0.01
 R255711: - 0.00753314325067662 C0 - C1 + C29 >= 0.01
 R255712: - 0.00210144097888833 C0 - C1 + C30 >= 0.01
 R255713: - 0.00695523386082013 C0 - C1 + C31 >= 0.01
 R255714: 0.00402458914590698 C0 + C1 + C32 >= 0.01
 R255715: - 0.00378903551845609 C0 - C1 + C33 >= 0.01
 R255716: - 0.00276036934581379 C0 - C1 + C34 >= 0.01
 R255717: - 0.0171551225257442 C0 - C1 + C35 >= 0.01
 R255718: - 0.00145535701477838 C0 - C1 + C36 >= 0.01
 R255719: - 0.0154531276234947 C0 - C1 + C37 >= 0.01
 R255720: - 0.00290857739634013 C0 - C1 + C38 >= 0.01
 R255721: - 0.00355155238876793 C0 - C1 + C39 >= 0.01
 R255722: - 0.00714257624343163 C0 - C1 + C40 >= 0.01
 R255723: - 0.0105145597406727 C0 - C1 + C41 >= 0.01
 R255724: - 0.00294739366778109 C0 - C1 + C42 >= 0.01
 R255725: - 0.0031228384368361 C0 - C1 + C43 >= 0.01
 R255726: - 0.00724362838436083 C0 - C1 + C44 >= 0.01
 R255727: - 0.00309406851848854 C0 - C1 + C45 >= 0.01
 R255728: - 0.0056965758611669 C0 - C1 + C46 >= 0.01
 R255729: - 0.00627462611899873 C0 - C1 + C47 >= 0.01
 R255730: - 0.00749396036874165 C0 - C1 + C48 >= 0.01
 R255731: - 0.00314154892578965 C0 - C1 + C49 >= 0.01
 R255732: - 0.00499158321894042 C0 - C1 + C50 >= 0.01
 R255733: - 0.00443872868815298 C0 - C1 + C51 >= 0.01
 R255734: - 0.00187151280162289 C0 - C1 + C52 >= 0.01
 R255735: 0.00122555323341747 C0 + C1 + C53 >= 0.01
 R255736: - 0.00379479896852842 C0 - C1 + C54 >= 0.01
 R255737: - 0.0110989797608129 C0 - C1 + C55 >= 0.01
 R255738: - 0.00157911293481589 C0 - C1 + C56 >= 0.01
 R255739: - 0.00210340446595957 C0 - C1 + C57 >= 0.01
 R255740: - 0.00746785177472077 C0 - C1 + C58 >= 0.01
 R255741: - 0.00333201289213842 C0 - C1 + C59 >= 0.01
 R255742: - 0.00202402480580913 C0 - C1 + C60 >= 0.01
 R255743: - 0.00152999757025866 C0 - C1 + C61 >= 0.01
 R255744: - 0.00360102894002613 C0 - C1 + C62 >= 0.01
 R255745: - 0.00871224581612658 C0 - C1 + C63 >= 0.01
 R255746: - 0.00586743891119434 C0 - C1 + C64 >= 0.01
 R255747: - 0.00327740660061431 C0 - C1 + C65 >= 0.01
 R255748: - 0.012729791455363 C0 - C1 + C66 >= 0.01
 R255749: - 0.0135895896989456 C0 - C1 + C67 >= 0.01
 R255750: - 0.00331234206308154 C0 - C1 + C68 >= 0.01
 R255751: - 0.00281435813278226 C0 - C1 + C69 >= 0.01
 R255752: - 0.00130569110476392 C0 - C1 + C70 >= 0.01
 R255753: - 0.00653706335921177 C0 - C1 + C71 >= 0.01
 R255754: - 0.00338817172280492 C0 - C1 + C72 >= 0.01
 R255755: - 0.00353996598576245 C0 - C1 + C73 >= 0.01
 R255756: - 0.00323062387072998 C0 - C1 + C74 >= 0.01
 R255757: - 0.00803322298910636 C0 - C1 + C75 >= 0.01
 R255758: 0.00538268563797175 C0 + C1 + C76 >= 0.01
 R255759: - 0.00548646390015482 C0 - C1 + C77 >= 0.01
 R255760: - 0.00498691552447234 C0 - C1 + C78 >= 0.01
 R255761: - 0.00139737553629271 C0 - C1 + C79 >= 0.01
 R255762: - 0.00134409404555048 C0 - C1 + C80 >= 0.01
 R255763: - 0.00439109010108724 C0 - C1 + C81 >= 0.01
 R255764: - 0.00656274475788448 C0 - C1 + C82 >= 0.01
 R255765: - 0.0135331694676117 C0 - C1 + C83 >= 0.01
 R255766: - 0.0130325616340895 C0 - C1 + C84 >= 0.01
 R255767: - 0.0101905772468315 C0 - C1 + C85 >= 0.01
 R255768: - 0.00316405421615759 C0 - C1 + C86 >= 0.01
 R255769: 0.00111494167859127 C0 + C1 + C87 >= 0.01
 R255770: - 0.00385565626393423 C0 - C1 + C88 >= 0.01
 R255771: - 0.00170139600104682 C0 - C1 + C89 >= 0.01
 R255772: - 0.00743790193312367 C0 - C1 + C90 >= 0.01
 R255773: - 0.00863778117336342 C0 - C1 + C91 >= 0.01
 R255774: - 0.00468394424923247 C0 - C1 + C92 >= 0.01
 R255775: - 0.0121712442310238 C0 - C1 + C93 >= 0.01
 R255776: - 0.0020937444369073 C0 - C1 + C94 >= 0.01
 R255777: - 0.00722801774136589 C0 - C1 + C95 >= 0.01
 R255778: - 0.00129622533421208 C0 - C1 + C96 >= 0.01
 R255779: - 0.00127392887110853 C0 - C1 + C97 >= 0.01
 R255780: - 0.0020406954507957 C0 - C1 + C98 >= 0.01
 R255781: - 0.00539948036833082 C0 - C1 + C99 >= 0.01
 R255782: - 0.00511273360138689 C0 - C1 + C100 >= 0.01
 R255783: - 0.00718659061245009 C0 - C1 + C101 >= 0.01
 R255784: - 0.0130062040165699 C0 - C1 + C102 >= 0.01
 R255785: - 0.00436531545139658 C0 - C1 + C103 >= 0.01
 R255786: - 0.00259735464866354 C0 - C1 + C104 >= 0.01
 R255787: - 0.0180026135207034 C0 - C1 + C105 >= 0.01
 R255788: - 0.00287083357863704 C0 - C1 + C106 >= 0.01
 R255789: - 0.0061397370679684 C0 - C1 + C107 >= 0.01
 R255790: - 0.00556219900684487 C0 - C1 + C108 >= 0.01
 R255791: - 0.00294749077466977 C0 - C1 + C109 >= 0.01
 R255792: - 0.00118356901336411 C0 - C1 + C110 >= 0.01
 R255793: - 0.00792797649539325 C0 - C1 + C111 >= 0.01
 R255794: - 0.00305127858691408 C0 - C1 + C112 >= 0.01
 R255795: - 0.00959621648494758 C0 - C1 + C113 >= 0.01
 R255796: - 0.00726844084073418 C0 - C1 + C114 >= 0.01
 R255797: - 0.00869275822861704 C0 - C1 + C115 >= 0.01
 R255798: - 0.00438446948349614 C0 - C1 + C116 >= 0.01
 R255799: - 0.00387778 C0 - C1 + C117 >= 0.01
 R255800: - 0.0103136593357856 C0 - C1 + C118 >= 0.01
 R255801: - 0.0128399504260186 C0 - C1 + C119 >= 0.01
 R255802: - 0.00747118562148405 C0 - C1 + C120 >= 0.01
 R255803: - 0.00634550595490675 C0 - C1 + C121 >= 0.01
 R255804: - 0.00481622468641731 C0 - C1 + C122 >= 0.01
 R255805: - 0.0137366510707579 C0 - C1 + C123 >= 0.01
 R255806: - 0.00914953517921375 C0 - C1 + C124 >= 0.01
 R255807: - 0.00440175469347589 C0 - C1 + C125 >= 0.01
 R255808: - 0.00165872242193722 C0 - C1 + C126 >= 0.01
 R255809: - 0.0031298514116515 C0 - C1 + C127 >= 0.01
 R255810: - 0.00191040235748457 C0 - C1 + C128 >= 0.01
 R255811: - 0.00858457150928776 C0 - C1 + C129 >= 0.01
 R255812: - 0.00241084754812761 C0 - C1 + C130 >= 0.01
 R255813: - 0.00435437989732693 C0 - C1 + C131 >= 0.01
 R255814: - 0.00603307518021954 C0 - C1 + C132 >= 0.01
 R255815: - 0.00429193839127025 C0 - C1 + C133 >= 0.01
 R255816: - 0.0287974583289378 C0 - C1 + C134 >= 0.01
 R255817: - 0.0045839776469962 C0 - C1 + C135 >= 0.01
 R255818: - 0.00428127427527778 C0 - C1 + C136 >= 0.01
 R255819: - 0.00864509430584212 C0 - C1 + C137 >= 0.01
 R255820: - 0.0147920819808911 C0 - C1 + C138 >= 0.01
 R255821: - 0.00501083422587286 C0 - C1 + C139 >= 0.01
 R255822: - 0.00481070332962516 C0 - C1 + C140 >= 0.01
 R255823: - 0.00452091147944325 C0 - C1 + C141 >= 0.01
 R255824: - 0.00783372534585071 C0 - C1 + C142 >= 0.01
 R255825: - 0.00648904481782676 C0 - C1 + C143 >= 0.01
 R255826: - 0.00474429441725332 C0 - C1 + C144 >= 0.01
 R255827: - 0.0041786429131136 C0 - C1 + C145 >= 0.01
 R255828: - 0.0024187197834449 C0 - C1 + C146 >= 0.01
 R255829: - 0.000971045 C0 - C1 + C147 >= 0.01
 R255830: - 0.0151721275054734 C0 - C1 + C148 >= 0.01
 R255831: - 0.00481814778054969 C0 - C1 + C149 >= 0.01
 R255832: - 0.00163707452089126 C0 - C1 + C150 >= 0.01
 R255833: - 0.00665917457146978 C0 - C1 + C151 >= 0.01
 R255834: - 0.00134783931404546 C0 - C1 + C152 >= 0.01
 R255835: - 0.00814939394554755 C0 - C1 + C153 >= 0.01
 R255836: - 0.00191987351458668 C0 - C1 + C154 >= 0.01
 R255837: - 0.00289062015110061 C0 - C1 + C155 >= 0.01
 R255838: - 0.00545395020303702 C0 - C1 + C156 >= 0.01
 R255839: - 0.00847560275664262 C0 - C1 + C157 >= 0.01
 R255840: - 0.00477822373819472 C0 - C1 + C158 >= 0.01
 R255841: - 0.0034889439147162 C0 - C1 + C159 >= 0.01
 R255842: - 0.00451133867322309 C0 - C1 + C160 >= 0.01
 R255843: - 0.00297786511059206 C0 - C1 + C161 >= 0.01
 R255844: - 0.00262258697894375 C0 - C1 + C162 >= 0.01
 R255845: - 0.00175902681948311 C0 - C1 + C163 >= 0.01
 R255846: - 0.00159210776707407 C0 - C1 + C164 >= 0.01
 R255847: - 0.00801293624798214 C0 - C1 + C165 >= 0.01
 R255848: - 0.00581093619966902 C0 - C1 + C166 >= 0.01
 R255849: - 0.00644797816459887 C0 - C1 + C167 >= 0.01
 R255850: - 0.00661438327259452 C0 - C1 + C168 >= 0.01
 R255851: - 0.00678497055265081 C0 - C1 + C169 >= 0.01
 R255852: - 0.0188899381201523 C0 - C1 + C170 >= 0.01
 R255853: - 0.00174896707152688 C0 - C1 + C171 >= 0.01
 R255854: - 0.00368774931213569 C0 - C1 + C172 >= 0.01
 R255855: - 0.00213079291059093 C0 - C1 + C173 >= 0.01
 R255856: - 0.00781979844432346 C0 - C1 + C174 >= 0.01
 R255857: - 0.00334610858722327 C0 - C1 + C175 >= 0.01
 R255858: - 0.0135785765914706 C0 - C1 + C176 >= 0.01
 R255859: - 0.0100825571177272 C0 - C1 + C177 >= 0.01
 R255860: - 0.00167912665445801 C0 - C1 + C178 >= 0.01
 R255861: - 0.00973387179359436 C0 - C1 + C179 >= 0.01
 R255862: - 0.00256728408805651 C0 - C1 + C180 >= 0.01
 R255863: - 0.00236340263437881 C0 - C1 + C181 >= 0.01
 R255864: 0.00211319586928794 C0 + C1 + C182 >= 0.01
 R255865: - 0.00259165058970476 C0 - C1 + C183 >= 0.01
 R255866: - 0.00899454286975925 C0 - C1 + C184 >= 0.01
 R255867: - 0.00362904433476979 C0 - C1 + C185 >= 0.01
 R255868: - 0.00480795597674398 C0 - C1 + C186 >= 0.01
 R255869: - 0.00644605038074112 C0 - C1 + C187 >= 0.01
 R255870: - 0.0169712377406092 C0 - C1 + C188 >= 0.01
 R255871: - 0.00629026621920642 C0 - C1 + C189 >= 0.01
 R255872: - 0.00142989426905074 C0 - C1 + C190 >= 0.01
 R255873: - 0.00831442466580454 C0 - C1 + C191 >= 0.01
 R255874: - 0.00193660386055926 C0 - C1 + C192 >= 0.01
 R255875: - 0.00516805710681743 C0 - C1 + C193 >= 0.01
 R255876: - 0.0101545222540764 C0 - C1 + C194 >= 0.01
 R255877: - 0.00226165885589842 C0 - C1 + C195 >= 0.01
 R255878: - 0.00942498726042145 C0 - C1 + C196 >= 0.01
 R255879: - 0.00636578722660701 C0 - C1 + C197 >= 0.01
 R255880: - 0.0114285139101426 C0 - C1 + C198 >= 0.01
 R255881: - 0.00535223977930313 C0 - C1 + C199 >= 0.01
 R255882: - 0.00999508736269665 C0 - C1 + C200 >= 0.01
 R255883: - 0.00584850638127788 C0 - C1 + C201 >= 0.01
 R255884: - 0.00332357786932572 C0 - C1 + C202 >= 0.01
 R255885: - 0.00519339156030487 C0 - C1 + C203 >= 0.01
 R255886: - 0.00839770546868883 C0 - C1 + C204 >= 0.01
 R255887: - 0.00760313940177551 C0 - C1 + C205 >= 0.01
 R255888: - 0.00243672536815171 C0 - C1 + C206 >= 0.01
 R255889: - 0.00184569253656827 C0 - C1 + C207 >= 0.01
 R255890: 0.00121723665893057 C0 + C1 + C208 >= 0.01
 R255891: - 0.00186865592282807 C0 - C1 + C209 >= 0.01
 R255892: - 0.00153688904251284 C0 - C1 + C210 >= 0.01
 R255893: - 0.00697189801605197 C0 - C1 + C211 >= 0.01
 R255894: - 0.00651034011980837 C0 - C1 + C212 >= 0.01
 R255895: - 0.00794218329392698 C0 - C1 + C213 >= 0.01
 R255896: - 0.00173894431663993 C0 - C1 + C214 >= 0.01
 R255897: - 0.00623665604715291 C0 - C1 + C215 >= 0.01
 R255898: - 0.0013183813629925 C0 - C1 + C216 >= 0.01
 R255899: - 0.00431364364395391 C0 - C1 + C217 >= 0.01
 R255900: - 0.0101059857502458 C0 - C1 + C218 >= 0.01
 R255901: - 0.0065556687329775 C0 - C1 + C219 >= 0.01
 R255902: - 0.0157340777668043 C0 - C1 + C220 >= 0.01
 R255903: - 0.00516941180426374 C0 - C1 + C221 >= 0.01
 R255904: - 0.0114530248531813 C0 - C1 + C222 >= 0.01
 R255905: 0.0167596956592871 C0 + C1 + C223 >= 0.01
 R255906: - 0.00733937812784507 C0 - C1 + C224 >= 0.01
 R255907: - 0.00768445273588574 C0 - C1 + C225 >= 0.01
 R255908: - 0.00827038361848673 C0 - C1 + C226 >= 0.01
 R255909: - 0.00769200192504264 C0 - C1 + C227 >= 0.01
 R255910: - 0.0034798926056705 C0 - C1 + C228 >= 0.01
 R255911: - 0.00392146200497138 C0 - C1 + C229 >= 0.01
 R255912: - 0.0043017994689844 C0 - C1 + C230 >= 0.01
 R255913: - 0.00383564640954739 C0 - C1 + C231 >= 0.01
 R255914: - 0.00398068678100909 C0 - C1 + C232 >= 0.01
 R255915: - 0.002351750795267 C0 - C1 + C233 >= 0.01
 R255916: - 0.00844834531812164 C0 - C1 + C234 >= 0.01
 R255917: - 0.0175493578034193 C0 - C1 + C235 >= 0.01
 R255918: - 0.00429840674899227 C0 - C1 + C236 >= 0.01
 R255919: - 0.00267701215769802 C0 - C1 + C237 >= 0.01
 R255920: - 0.00666206877600067 C0 - C1 + C238 >= 0.01
 R255921: - 0.00617718648428266 C0 - C1 + C239 >= 0.01
 R255922: - 0.00389210043547724 C0 - C1 + C240 >= 0.01
 R255923: - 9.926607614243097e-04 C0 - C1 + C241 >= 0.01
 R255924: - 0.00349034523905171 C0 - C1 + C242 >= 0.01
 R255925: - 0.00186006299637692 C0 - C1 + C243 >= 0.01
 R255926: - 0.00446852698878024 C0 - C1 + C244 >= 0.01
 R255927: - 0.0171742226404881 C0 - C1 + C245 >= 0.01
 R255928: - 0.00971894655167864 C0 - C1 + C246 >= 0.01
 R255929: - 0.0304019259524952 C0 - C1 + C247 >= 0.01
 R255930: - 0.00317561093912414 C0 - C1 + C248 >= 0.01
 R255931: - 0.00202578555875178 C0 - C1 + C249 >= 0.01
 R255932: - 0.00186774402405312 C0 - C1 + C250 >= 0.01
 R255933: - 0.00296429392220062 C0 - C1 + C251 >= 0.01
 R255934: - 0.00269576555851434 C0 - C1 + C252 >= 0.01
 R255935: - 0.00226001074085108 C0 - C1 + C253 >= 0.01
 R255936: - 0.00409732380181888 C0 - C1 + C254 >= 0.01
 R255937: - 0.00562957096640333 C0 - C1 + C255 >= 0.01
 R255938: - 0.0128034867988815 C0 - C1 + C256 >= 0.01
 R255939: - 0.00766331376776276 C0 - C1 + C257 >= 0.01
 R255940: - 0.00753660975392282 C0 - C1 + C258 >= 0.01
 R255941: - 0.0060705336338808 C0 - C1 + C259 >= 0.01
 R255942: - 0.0114130429410022 C0 - C1 + C260 >= 0.01
 R255943: - 0.00642450558645222 C0 - C1 + C261 >= 0.01
 R255944: - 0.00460988293379133 C0 - C1 + C262 >= 0.01
 R255945: - 0.00451437 C0 - C1 + C263 >= 0.01
 R255946: - 0.0337677401039233 C0 - C1 + C264 >= 0.01
 R255947: - 0.00555845981677465 C0 - C1 + C265 >= 0.01
 R255948: - 0.0110616550523378 C0 - C1 + C266 >= 0.01
 R255949: - 0.0205178346610957 C0 - C1 + C267 >= 0.01
 R255950: - 0.00484455154508212 C0 - C1 + C268 >= 0.01
 R255951: - 0.0351270187814869 C0 - C1 + C269 >= 0.01
 R255952: - 0.00197330553457311 C0 - C1 + C270 >= 0.01
 R255953: - 0.00623067910211669 C0 - C1 + C271 >= 0.01
 R255954: - 0.00502490853538456 C0 - C1 + C272 >= 0.01
 R255955: - 0.00590278210136704 C0 - C1 + C273 >= 0.01
 R255956: - 0.0196734600313173 C0 - C1 + C274 >= 0.01
 R255957: - 0.00138480759681707 C0 - C1 + C275 >= 0.01
 R255958: - 0.0133971054970636 C0 - C1 + C276 >= 0.01
 R255959: - 0.00268880303447062 C0 - C1 + C277 >= 0.01
 R255960: - 0.00591758699256368 C0 - C1 + C278 >= 0.01
 R255961: 0.00231096083886335 C0 + C1 + C279 >= 0.01
 R255962: - 0.00603011224585733 C0 - C1 + C280 >= 0.01
 R255963: - 0.00130603299594642 C0 - C1 + C281 >= 0.01
 R255964: - 0.00485480218803044 C0 - C1 + C282 >= 0.01
 R255965: - 0.00230058497053317 C0 - C1 + C283 >= 0.01
 R255966: - 0.00376430535120379 C0 - C1 + C284 >= 0.01
 R255967: - 0.00807439100874182 C0 - C1 + C285 >= 0.01
 R255968: - 0.00485065925402803 C0 - C1 + C286 >= 0.01
 R255969: - 0.00417332527516417 C0 - C1 + C287 >= 0.01
Bounds
End
